Traveling Salesman Problem/TSP_generados/Aleatorio1620390927_9.tsp
NAME: Aleatorio1620390927_9.tsp
COMMENT: Randomly generated scenario
TYPE: TSP
DIMENSION: 9
EDGE_WEIGHT_TYPE: ATT
NODE_COORD_SECTION
1 2.91 15.49
2 41.23 17.36
3 3.84 15.64
4 0.65 25.29
5 47.07 11.26
6 23.17 33.9
7 48.79 16.84
8 40.02 41.93
9 40.33 25.87
