Traveling Salesman Problem/TSP_generados/Aleatorio1620390927_9.opt.tour
NAME: Aleatorio1620390927_9.opt.tour
COMMENT: Optimal solution for Aleatorio1620390927_9 (133.9249309395301)
TYPE: TOUR
DIMENSION: 9
TOUR_SECTION
1 3 2 5 7 9 8 6 4
-1
EOF
